(set-option :print-success false)
(set-logic QF_UF)
(declare-sort x9 0)
(declare-sort x133 0)
(declare-fun x63 () x133)
(declare-fun x24 () x133)
(declare-fun x85 (x133 x133) x133)
(declare-fun x93 () x133)
(declare-fun x115 () x133)
(declare-fun x75 () x133)
(declare-fun x40 (x133 x133) x133)
(assert (and (and (and (not (= x93 (x85 x93 x93))) (and (not (= (x85 x75 x75) x75)) (not (= x63 (x85 x63 x63))))) (not (= (x85 x115 x115) x115))) (not (= x24 (x85 x24 x24)))))
(assert (let ((x27 (x85 x24 x24)) (x25 (x85 x63 x63)) (x23 (x85 x93 x93)) (x61 (x85 x115 x115)) (x20 (x85 x75 x75))) (and (or (or (or (= x93 (x85 x23 x93)) (or (= (x85 x25 x63) x63) (= x75 (x85 x20 x75)))) (= x115 (x85 x61 x115))) (= x24 (x85 x27 x24))) (or (or (or (and (and (and (and (not (= x93 (x85 x75 (x85 x93 x75)))) (not (= (x85 x63 (x85 x93 x63)) x93))) (not (= x93 (x85 x93 x23)))) (not (= x93 (x85 x115 (x85 x93 x115))))) (not (= x93 (x85 x24 (x85 x93 x24))))) (or (and (and (and (and (not (= (x85 x63 x25) x63)) (not (= (x85 x75 (x85 x63 x75)) x63))) (not (= (x85 x93 (x85 x63 x93)) x63))) (not (= (x85 x115 (x85 x63 x115)) x63))) (not (= (x85 x24 (x85 x63 x24)) x63))) (and (not (= x75 (x85 x24 (x85 x75 x24)))) (and (and (not (= (x85 x93 (x85 x75 x93)) x75)) (and (not (= x75 (x85 x63 (x85 x75 x63)))) (not (= x75 (x85 x75 x20))))) (not (= x75 (x85 x115 (x85 x75 x115)))))))) (and (not (= x115 (x85 x24 (x85 x115 x24)))) (and (and (not (= x115 (x85 x93 (x85 x115 x93)))) (and (not (= x115 (x85 x75 (x85 x115 x75)))) (not (= (x85 x63 (x85 x115 x63)) x115)))) (not (= (x85 x115 x61) x115))))) (and (and (and (and (not (= x24 (x85 x75 (x85 x24 x75)))) (not (= (x85 x63 (x85 x24 x63)) x24))) (not (= x24 (x85 x93 (x85 x24 x93))))) (not (= x24 (x85 x115 (x85 x24 x115))))) (not (= (x85 x24 x27) x24)))))))
(assert (let ((x88 (x85 x24 x63)) (x101 (x85 x75 x93)) (x140 (x85 x115 x115)) (x68 (x85 x63 x24)) (x72 (x85 x24 x93)) (x139 (x85 x63 x93)) (x20 (x85 x75 x75)) (x45 (x85 x24 x24)) (x17 (x85 x93 x115)) (x49 (x85 x24 x115)) (x51 (x85 x115 x63)) (x96 (x85 x75 x24)) (x16 (x85 x93 x24)) (x83 (x85 x93 x93)) (x25 (x85 x63 x75)) (x106 (x85 x93 x63)) (x21 (x85 x75 x115)) (x89 (x85 x115 x24)) (x27 (x85 x24 x75)) (x15 (x85 x115 x93)) (x95 (x85 x75 x63)) (x61 (x85 x115 x75)) (x98 (x85 x63 x63)) (x103 (x85 x63 x115)) (x23 (x85 x93 x75))) (and (and (and (and (and (not (= x72 x49)) (and (and (and (not (= x88 x72)) (and (and (and (not (= x27 x72)) (not (= x27 x88))) (not (= x27 x49))) (not (= x45 x27)))) (not (= x49 x88))) (not (= x88 x45)))) (not (= x45 x72))) (not (= x49 x45))) (and (and (not (= x89 x140)) (and (not (= x15 x89)) (and (not (= x15 x140)) (and (and (not (= x140 x51)) (and (and (and (not (= x61 x140)) (and (not (= x15 x61)) (not (= x61 x51)))) (not (= x89 x61))) (not (= x51 x15)))) (not (= x89 x51)))))) (and (and (and (and (and (not (= x139 x103)) (and (not (= x98 x68)) (and (and (and (and (and (not (= x98 x25)) (not (= x139 x25))) (not (= x25 x103))) (not (= x25 x68))) (not (= x98 x139))) (not (= x98 x103))))) (not (= x139 x68))) (not (= x68 x103))) (and (not (= x96 x21)) (and (and (and (not (= x95 x96)) (and (and (not (= x95 x101)) (and (not (= x20 x96)) (and (and (not (= x101 x20)) (not (= x95 x20))) (not (= x21 x20))))) (not (= x21 x95)))) (not (= x101 x21))) (not (= x96 x101))))) (and (not (= x17 x16)) (and (and (not (= x17 x83)) (and (not (= x106 x16)) (and (and (and (and (not (= x17 x23)) (and (not (= x83 x23)) (not (= x23 x106)))) (not (= x23 x16))) (not (= x83 x106))) (not (= x17 x106))))) (not (= x16 x83))))))) (and (and (and (and (not (= x89 x16)) (and (and (not (= x68 x89)) (and (not (= x16 x68)) (and (not (= x45 x96)) (and (and (not (= x68 x96)) (not (= x16 x96))) (not (= x96 x89)))))) (not (= x68 x45)))) (not (= x45 x16))) (not (= x89 x45))) (and (and (and (and (and (not (= x27 x23)) (and (and (not (= x27 x25)) (and (and (not (= x25 x23)) (and (not (= x20 x27)) (and (not (= x61 x20)) (and (not (= x20 x25)) (not (= x23 x20)))))) (not (= x25 x61)))) (not (= x61 x23)))) (not (= x61 x27))) (and (not (= x51 x88)) (and (not (= x88 x106)) (and (not (= x106 x51)) (and (and (and (not (= x98 x106)) (and (not (= x95 x88)) (and (not (= x95 x51)) (and (not (= x98 x95)) (not (= x95 x106)))))) (not (= x51 x98))) (not (= x88 x98))))))) (and (and (not (= x83 x72)) (and (not (= x83 x15)) (and (not (= x72 x139)) (and (not (= x139 x15)) (and (and (not (= x101 x72)) (and (and (not (= x83 x101)) (not (= x139 x101))) (not (= x15 x101)))) (not (= x139 x83))))))) (not (= x15 x72)))) (and (and (and (and (not (= x103 x49)) (and (and (not (= x103 x17)) (and (not (= x21 x49)) (and (and (not (= x17 x21)) (not (= x21 x103))) (not (= x140 x21))))) (not (= x103 x140)))) (not (= x140 x17))) (not (= x49 x17))) (not (= x140 x49))))))))
(assert (let ((x110 (x85 x63 x63)) (x141 (x85 x115 x63)) (x43 (x85 x115 x93)) (x132 (x85 x75 x63)) (x69 (x85 x75 x75)) (x44 (x85 x24 x115)) (x152 (x85 x93 x75)) (x114 (x85 x63 x115)) (x80 (x85 x93 x115)) (x156 (x85 x24 x75)) (x116 (x85 x93 x24)) (x147 (x85 x63 x24)) (x60 (x85 x24 x93)) (x149 (x85 x93 x93)) (x138 (x85 x24 x24)) (x42 (x85 x115 x24)) (x90 (x85 x75 x93)) (x153 (x85 x63 x93)) (x125 (x85 x115 x115)) (x53 (x85 x93 x63)) (x117 (x85 x75 x115)) (x36 (x85 x63 x75)) (x65 (x85 x24 x63)) (x134 (x85 x75 x24)) (x127 (x85 x115 x75))) (let ((x27 (not (= x75 x152))) (x83 (not (= x75 x114))) (x57 (not (= x156 x24))) (x18 (not (= x63 x153))) (x76 (not (= x36 x63))) (x38 (not (= x93 x60))) (x25 (not (= x36 x75))) (x16 (not (= x75 x44))) (x15 (not (= x43 x75))) (x111 (not (= x117 x115))) (x84 (not (= x110 x63))) (x7 (not (= x93 x138))) (x81 (not (= x60 x115))) (x30 (not (= x63 x134))) (x96 (not (= x60 x75))) (x47 (not (= x80 x63))) (x67 (not (= x63 x127))) (x68 (not (= x116 x75))) (x11 (not (= x153 x93))) (x39 (not (= x63 x69))) (x54 (not (= x93 x134))) (x119 (not (= x93 x43))) (x154 (not (= x90 x115))) (x41 (not (= x110 x115))) (x148 (not (= x44 x24))) (x139 (not (= x141 x75))) (x118 (not (= x63 x125))) (x52 (not (= x152 x93))) (x22 (not (= x149 x93))) (x13 (not (= x43 x115))) (x157 (not (= x69 x24))) (x106 (not (= x153 x75))) (x20 (not (= x69 x75))) (x103 (not (= x75 x156))) (x10 (not (= x141 x93))) (x70 (not (= x93 x147))) (x78 (not (= x93 x116))) (x130 (not (= x63 x43))) (x112 (not (= x69 x93))) (x135 (not (= x110 x24))) (x29 (not (= x36 x93))) (x155 (not (= x69 x115))) (x101 (not (= x75 x117))) (x50 (not (= x117 x93))) (x122 (not (= x115 x65))) (x97 (not (= x127 x24))) (x51 (not (= x149 x75))) (x113 (not (= x115 x147))) (x73 (not (= x65 x63))) (x142 (not (= x138 x63))) (x137 (not (= x93 x132))) (x150 (not (= x42 x115))) (x136 (not (= x134 x24))) (x32 (not (= x153 x115))) (x45 (not (= x75 x138))) (x4 (not (= x42 x93))) (x55 (not (= x90 x24))) (x158 (not (= x93 x125))) (x104 (not (= x141 x63))) (x56 (not (= x93 x53))) (x79 (not (= x63 x156))) (x145 (not (= x63 x114))) (x102 (not (= x115 x53))) (x64 (not (= x24 x36))) (x121 (not (= x93 x156))) (x2 (not (= x53 x63))) (x140 (not (= x75 x65))) (x143 (not (= x117 x24))) (x21 (not (= x75 x125))) (x124 (not (= x93 x110))) (x33 (not (= x24 x147))) (x1 (not (= x115 x149))) (x151 (not (= x24 x153))) (x99 (not (= x53 x24))) (x87 (not (= x141 x24))) (x107 (not (= x24 x138))) (x94 (not (= x24 x132))) (x14 (not (= x115 x138))) (x95 (not (= x90 x75))) (x35 (not (= x115 x44))) (x144 (not (= x127 x115))) (x46 (not (= x115 x80))) (x59 (not (= x65 x24))) (x86 (not (= x44 x93))) (x109 (not (= x24 x152))) (x77 (not (= x156 x115))) (x3 (not (= x63 x116))) (x100 (not (= x114 x115))) (x19 (not (= x116 x24))) (x34 (not (= x63 x149))) (x28 (not (= x115 x132))) (x146 (not (= x63 x147))) (x17 (not (= x75 x134))) (x58 (not (= x90 x93))) (x62 (not (= x93 x65))) (x92 (not (= x90 x63))) (x66 (not (= x117 x63))) (x5 (not (= x125 x115))) (x6 (not (= x24 x60))) (x72 (not (= x80 x75))) (x108 (not (= x44 x63))) (x71 (not (= x93 x80))) (x48 (not (= x152 x63))) (x31 (not (= x93 x127))) (x82 (not (= x43 x24))) (x129 (not (= x134 x115))) (x88 (not (= x75 x127))) (x89 (not (= x75 x42))) (x74 (not (= x115 x141))) (x37 (not (= x24 x149))) (x123 (not (= x63 x60))) (x12 (not (= x114 x24))) (x49 (not (= x75 x147))) (x159 (not (= x63 x132))) (x120 (not (= x114 x93))) (x23 (not (= x75 x132))) (x26 (not (= x116 x115))) (x105 (not (= x63 x42))) (x98 (not (= x75 x53))) (x61 (not (= x75 x110))) (x8 (not (= x24 x125))) (x126 (not (= x42 x24))) (x131 (not (= x115 x152))) (x128 (not (= x80 x24))) (x91 (not (= x115 x36)))) (or (and (and (and (or x148 x126) (and (or x6 x19) (and (or x57 x136) (or x33 x59)))) (or x107 x107)) (and (and (and (and (or x128 x82) (and (and (or x109 x55) (or x99 x151)) (or x37 x37))) (or x6 x19)) (and (and (or x57 x136) (and (and (and (or x157 x157) (or x94 x64)) (or x109 x55)) (or x97 x143))) (and (or x33 x59) (and (or x12 x87) (and (and (or x64 x94) (or x135 x135)) (or x151 x99)))))) (and (or x148 x126) (and (or x8 x8) (and (and (or x12 x87) (or x143 x97)) (or x82 x128)))))) (or (or (or (and (and (and (or x89 x16) (and (and (or x15 x72) (and (or x139 x83) (or x101 x88))) (or x21 x21))) (and (and (and (or x17 x103) (and (and (and (or x20 x20) (or x25 x23)) (or x27 x95)) (or x88 x101))) (and (and (and (or x98 x106) (and (or x61 x61) (or x23 x25))) (or x83 x139)) (or x140 x49))) (and (and (or x15 x72) (and (and (or x98 x106) (or x27 x95)) (or x51 x51))) (or x68 x96)))) (and (or x45 x45) (and (and (or x68 x96) (and (or x103 x17) (or x140 x49))) (or x89 x16)))) (and (and (and (and (and (and (or x67 x66) (and (and (or x39 x39) (or x76 x159)) (or x92 x48))) (or x30 x79)) (and (and (and (and (or x84 x84) (or x159 x76)) (or x2 x18)) (or x145 x104)) (or x73 x146))) (and (or x123 x3) (and (and (or x34 x34) (and (or x48 x92) (or x2 x18))) (or x130 x47)))) (and (or x105 x108) (and (and (or x130 x47) (and (or x145 x104) (or x67 x66))) (or x118 x118)))) (and (or x142 x142) (and (and (or x123 x3) (and (or x73 x146) (or x79 x30))) (or x105 x108))))) (and (and (and (or x86 x4) (and (or x78 x38) (and (or x54 x121) (or x62 x70)))) (or x7 x7)) (and (and (and (or x78 x38) (and (and (and (or x11 x56) (or x52 x58)) (or x22 x22)) (or x71 x119))) (and (and (or x121 x54) (and (and (or x58 x52) (and (or x29 x137) (or x112 x112))) (or x50 x31))) (and (or x70 x62) (and (or x120 x10) (and (and (or x124 x124) (or x29 x137)) (or x11 x56)))))) (and (or x86 x4) (and (and (and (or x50 x31) (or x120 x10)) (or x119 x71)) (or x158 x158)))))) (and (and (and (or x35 x150) (and (or x5 x5) (and (or x46 x13) (and (or x100 x74) (or x111 x144))))) (and (and (and (and (or x74 x100) (and (and (or x91 x28) (or x41 x41)) (or x32 x102))) (or x113 x122)) (and (and (or x144 x111) (and (and (or x28 x91) (or x155 x155)) (or x131 x154))) (or x77 x129))) (and (or x81 x26) (and (or x13 x46) (and (or x1 x1) (and (or x154 x131) (or x102 x32))))))) (and (and (and (or x26 x81) (and (or x113 x122) (or x129 x77))) (or x150 x35)) (or x14 x14))))))))
(assert (or (= x24 (x85 x24 (x85 x24 x24))) (or (= (x85 x115 (x85 x115 x115)) x115) (or (= (x85 x93 (x85 x93 x93)) x93) (or (= (x85 x63 (x85 x63 x63)) x63) (= x75 (x85 x75 (x85 x75 x75))))))))
(assert (let ((x68 (x85 x63 x24)) (x39 (x85 x24 x63)) (x11 (x85 x24 x115)) (x129 (x85 x24 x24)) (x27 (x85 x75 x115)) (x95 (x85 x75 x24)) (x147 (x85 x93 x93)) (x51 (x85 x93 x75)) (x23 (x85 x75 x63)) (x49 (x85 x63 x93)) (x25 (x85 x75 x75)) (x96 (x85 x63 x115)) (x61 (x85 x75 x93)) (x88 (x85 x115 x75)) (x29 (x85 x115 x115)) (x137 (x85 x115 x24)) (x149 (x85 x115 x93)) (x34 (x85 x24 x93)) (x48 (x85 x93 x24)) (x106 (x85 x63 x75)) (x101 (x85 x24 x75)) (x69 (x85 x115 x63)) (x140 (x85 x63 x63)) (x65 (x85 x93 x115)) (x45 (x85 x93 x63))) (let ((x127 (= x115 x140)) (x28 (= x24 x65)) (x47 (= x115 x147)) (x156 (= x24 x23)) (x21 (= x23 x75)) (x57 (= x101 x24)) (x135 (= x68 x93)) (x153 (= x75 x49)) (x80 (= x51 x93)) (x73 (= x69 x75)) (x12 (= x68 x115)) (x35 (= x63 x129)) (x74 (= x75 x137)) (x109 (= x48 x93)) (x138 (= x88 x63)) (x130 (= x115 x49)) (x38 (= x115 x65)) (x97 (= x115 x34)) (x41 (= x24 x29)) (x55 (= x93 x137)) (x56 (= x63 x29)) (x18 (= x63 x147)) (x91 (= x24 x96)) (x82 (= x115 x48)) (x2 (= x49 x63)) (x58 (= x65 x63)) (x77 (= x63 x11)) (x113 (= x63 x68)) (x120 (= x96 x93)) (x89 (= x140 x63)) (x123 (= x27 x75)) (x111 (= x48 x75)) (x90 (= x93 x140)) (x70 (= x96 x115)) (x121 (= x69 x115)) (x87 (= x95 x115)) (x118 (= x45 x24)) (x146 (= x75 x149)) (x84 (= x61 x75)) (x5 (= x63 x34)) (x108 (= x65 x75)) (x26 (= x137 x63)) (x20 (= x75 x25)) (x46 (= x39 x63)) (x126 (= x137 x24)) (x122 (= x95 x63)) (x100 (= x75 x129)) (x159 (= x75 x51)) (x104 (= x115 x45)) (x136 (= x39 x24)) (x44 (= x49 x24)) (x81 (= x63 x48)) (x116 (= x93 x61)) (x79 (= x147 x24)) (x50 (= x93 x149)) (x71 (= x29 x93)) (x78 (= x115 x29)) (x72 (= x106 x75)) (x62 (= x115 x27)) (x119 (= x65 x93)) (x103 (= x140 x75)) (x102 (= x34 x75)) (x60 (= x49 x93)) (x13 (= x101 x63)) (x110 (= x45 x75)) (x36 (= x23 x93)) (x105 (= x75 x29)) (x31 (= x69 x93)) (x139 (= x25 x93)) (x19 (= x68 x24)) (x42 (= x61 x24)) (x8 (= x115 x129)) (x83 (= x115 x25)) (x10 (= x27 x93)) (x131 (= x75 x101)) (x158 (= x88 x115)) (x14 (= x93 x39)) (x32 (= x11 x75)) (x16 (= x63 x23)) (x3 (= x75 x96)) (x142 (= x69 x63)) (x54 (= x115 x149)) (x132 (= x93 x106)) (x22 (= x93 x88)) (x37 (= x39 x115)) (x7 (= x149 x24)) (x15 (= x24 x25)) (x154 (= x75 x39)) (x86 (= x24 x88)) (x64 (= x11 x93)) (x148 (= x24 x48)) (x151 (= x115 x101)) (x141 (= x63 x45)) (x94 (= x93 x95)) (x114 (= x51 x63)) (x53 (= x147 x75)) (x6 (= x95 x24)) (x92 (= x61 x63)) (x66 (= x51 x115)) (x98 (= x63 x25)) (x144 (= x68 x75)) (x145 (= x61 x115)) (x134 (= x24 x106)) (x1 (= x75 x95)) (x67 (= x147 x93)) (x4 (= x24 x69)) (x112 (= x63 x149)) (x124 (= x27 x63)) (x143 (= x11 x115)) (x107 (= x24 x129)) (x33 (= x24 x11)) (x99 (= x129 x93)) (x152 (= x115 x106)) (x150 (= x93 x101)) (x157 (= x93 x34)) (x128 (= x115 x137)) (x17 (= x63 x106)) (x43 (= x45 x93)) (x76 (= x140 x24)) (x59 (= x24 x34)) (x125 (= x51 x24)) (x30 (= x75 x88)) (x155 (= x27 x24)) (x52 (= x96 x63)) (x117 (= x23 x115))) (and (and (and (and (and (and (and (or (or (or x66 (or x152 x83)) x158) x151) (or (or (or x145 (or x117 x83)) x62) x87)) (and (and (or (or x10 (or (or x36 x139) x116)) x94) (or (or x22 (or (or x139 x132) x80)) x150)) (and (and (or x122 (or x124 (or (or x98 x16) x92))) (or (or (or (or x98 x17) x114) x138) x13)) (and (or (or x30 (or x159 (or x72 x20))) x131) (or (or x123 (or (or x21 x20) x84)) x1))))) (and (or (or (or x42 (or x15 x156)) x155) x6) (or (or x86 (or (or x134 x15) x125)) x57))) (and (and (or (or x91 (or x44 (or x76 x134))) x19) (or (or (or (or x156 x76) x118) x4) x136)) (and (and (and (or (or x31 (or (or x90 x36) x43)) x14) (or (or (or (or x90 x132) x60) x120) x135)) (and (and (or (or (or x110 (or x21 x103)) x73) x154) (or (or (or x153 (or x72 x103)) x3) x144)) (and (or x113 (or x52 (or x2 (or x89 x17)))) (or x46 (or (or x141 (or x89 x16)) x142))))) (and (or x12 (or x70 (or (or x152 x127) x130))) (or x37 (or (or (or x127 x117) x104) x121)))))) (and (and (or (or (or x79 (or x44 x42)) x7) x59) (or (or x28 (or (or x118 x125) x79)) x148)) (and (and (and (and (or (or x112 (or (or x92 x2) x18)) x5) (or (or (or x18 (or x114 x141)) x58) x81)) (and (or x102 (or (or (or x84 x153) x53) x146)) (or (or (or (or x110 x159) x53) x108) x111))) (and (or x109 (or (or (or x43 x80) x67) x119)) (or (or x50 (or (or x116 x60) x67)) x157))) (and (or (or (or (or x145 x130) x47) x54) x97) (or (or (or x47 (or x66 x104)) x38) x82))))) (and (and (or (or (or x7 (or x4 x86)) x41) x126) (or x33 (or x41 (or (or x155 x91) x28)))) (and (and (and (or x55 (or x71 (or x50 (or x31 x22)))) (or (or (or x119 (or x10 x120)) x71) x64)) (and (and (or x26 (or x56 (or (or x138 x142) x112))) (or (or x56 (or x58 (or x52 x124))) x77)) (and (or x74 (or x105 (or x146 (or x30 x73)))) (or x32 (or (or x108 (or x123 x3)) x105))))) (and (or (or (or x54 (or x121 x158)) x78) x128) (or x143 (or x78 (or x38 (or x62 x70)))))))) (and (and (or x107 (or (or (or x19 x6) x148) x126)) (or x107 (or x33 (or (or x57 x136) x59)))) (and (and (or (or (or (or x151 x37) x97) x143) x8) (or x8 (or x128 (or (or x87 x12) x82)))) (and (and (or x99 (or (or (or x135 x94) x109) x55)) (or (or (or (or x14 x150) x157) x64) x99)) (and (and (or x100 (or (or (or x1 x144) x111) x74)) (or x100 (or (or x102 (or x154 x131)) x32))) (and (or (or (or (or x113 x122) x81) x26) x35) (or (or x77 (or x5 (or x13 x46))) x35))))))))))
(assert (or (and (and (and (and (not (= x75 (x85 x24 x75))) (not (= x63 (x85 x24 x63)))) (not (= (x85 x24 x93) x93))) (not (= x115 (x85 x24 x115)))) (not (= x24 (x85 x24 x24)))) (or (or (or (and (not (= x24 (x85 x75 x24))) (and (and (and (not (= x75 (x85 x75 x75))) (not (= x63 (x85 x75 x63)))) (not (= x93 (x85 x75 x93)))) (not (= x115 (x85 x75 x115))))) (and (and (not (= x115 (x85 x63 x115))) (and (not (= (x85 x63 x93) x93)) (and (not (= x75 (x85 x63 x75))) (not (= x63 (x85 x63 x63)))))) (not (= (x85 x63 x24) x24)))) (and (not (= (x85 x93 x24) x24)) (and (not (= x115 (x85 x93 x115))) (and (not (= x93 (x85 x93 x93))) (and (not (= x75 (x85 x93 x75))) (not (= (x85 x93 x63) x63))))))) (and (and (and (and (not (= (x85 x115 x75) x75)) (not (= x63 (x85 x115 x63)))) (not (= (x85 x115 x93) x93))) (not (= x115 (x85 x115 x115)))) (not (= x24 (x85 x115 x24)))))))
(assert (and (or (= x24 (x85 x24 (x85 x24 x24))) (or (or (= (x85 x24 (x85 x24 x93)) x93) (or (= x63 (x85 x24 (x85 x24 x63))) (= x75 (x85 x24 (x85 x24 x75))))) (= (x85 x24 (x85 x24 x115)) x115))) (and (and (or (= x24 (x85 x93 (x85 x93 x24))) (or (or (= x93 (x85 x93 (x85 x93 x93))) (or (= x75 (x85 x93 (x85 x93 x75))) (= x63 (x85 x93 (x85 x93 x63))))) (= (x85 x93 (x85 x93 x115)) x115))) (and (or (= x24 (x85 x63 (x85 x63 x24))) (or (or (= (x85 x63 (x85 x63 x93)) x93) (or (= x63 (x85 x63 (x85 x63 x63))) (= (x85 x63 (x85 x63 x75)) x75))) (= (x85 x63 (x85 x63 x115)) x115))) (or (= (x85 x75 (x85 x75 x24)) x24) (or (or (or (= x75 (x85 x75 (x85 x75 x75))) (= x63 (x85 x75 (x85 x75 x63)))) (= x93 (x85 x75 (x85 x75 x93)))) (= (x85 x75 (x85 x75 x115)) x115))))) (or (= x24 (x85 x115 (x85 x115 x24))) (or (or (= (x85 x115 (x85 x115 x93)) x93) (or (= x75 (x85 x115 (x85 x115 x75))) (= x63 (x85 x115 (x85 x115 x63))))) (= x115 (x85 x115 (x85 x115 x115))))))))
(assert (let ((x61 (x85 x115 x115)) (x20 (x85 x75 x75)) (x23 (x85 x93 x93)) (x27 (x85 x24 x24)) (x25 (x85 x63 x63))) (and (and (and (and (not (= (x85 x20 x20) x75)) (not (= x63 (x85 x25 x25)))) (not (= x93 (x85 x23 x23)))) (not (= x115 (x85 x61 x61)))) (not (= (x85 x27 x27) x24)))))
(assert (and (= x24 (x85 x75 x63)) (and (and (= x63 (x85 x75 x75)) (= x75 (x85 x93 x93))) (= (x85 x115 x115) x93))))
(assert (let ((x139 (x85 x93 x63)) (x17 (x85 x115 x93)) (x106 (x85 x63 x93)) (x103 (x85 x115 x63)) (x49 (x85 x115 x24)) (x27 (x85 x75 x24)) (x88 (x85 x63 x24)) (x83 (x85 x93 x93)) (x96 (x85 x24 x75)) (x101 (x85 x93 x75)) (x61 (x85 x75 x115)) (x15 (x85 x93 x115)) (x140 (x85 x115 x115)) (x68 (x85 x24 x63)) (x21 (x85 x115 x75)) (x89 (x85 x24 x115)) (x72 (x85 x93 x24)) (x20 (x85 x75 x75)) (x95 (x85 x63 x75)) (x51 (x85 x63 x115)) (x16 (x85 x24 x93)) (x23 (x85 x75 x93)) (x98 (x85 x63 x63)) (x25 (x85 x75 x63)) (x45 (x85 x24 x24))) (and (and (and (and (and (and (and (and (or (or (or (= x20 x93) (or (= x20 x63) (= x20 x75))) (= x115 x20)) (= x20 x24)) (or (= x25 x24) (or (= x115 x25) (or (= x25 x93) (or (= x25 x75) (= x63 x25)))))) (or (or (or (= x23 x93) (or (= x23 x63) (= x75 x23))) (= x115 x23)) (= x24 x23))) (or (or (or (= x93 x61) (or (= x61 x75) (= x61 x63))) (= x61 x115)) (= x61 x24))) (or (= x27 x24) (or (or (= x93 x27) (or (= x63 x27) (= x75 x27))) (= x27 x115)))) (and (or (= x88 x24) (or (= x115 x88) (or (or (= x88 x63) (= x88 x75)) (= x93 x88)))) (and (and (or (or (= x115 x106) (or (= x93 x106) (or (= x106 x63) (= x75 x106)))) (= x24 x106)) (and (or (= x24 x98) (or (= x115 x98) (or (= x93 x98) (or (= x98 x75) (= x98 x63))))) (or (= x95 x24) (or (= x95 x115) (or (= x95 x93) (or (= x95 x75) (= x63 x95))))))) (or (or (= x115 x51) (or (= x93 x51) (or (= x63 x51) (= x75 x51)))) (= x51 x24))))) (and (or (or (or (= x93 x72) (or (= x75 x72) (= x72 x63))) (= x72 x115)) (= x24 x72)) (and (or (= x15 x24) (or (= x115 x15) (or (= x15 x93) (or (= x63 x15) (= x75 x15))))) (and (or (or (= x115 x83) (or (or (= x83 x63) (= x75 x83)) (= x83 x93))) (= x83 x24)) (and (or (or (or (or (= x139 x63) (= x139 x75)) (= x93 x139)) (= x139 x115)) (= x24 x139)) (or (= x24 x101) (or (or (= x101 x93) (or (= x63 x101) (= x101 x75))) (= x115 x101)))))))) (and (and (and (and (or (or (= x115 x103) (or (= x93 x103) (or (= x103 x75) (= x63 x103)))) (= x103 x24)) (or (or (= x115 x21) (or (= x21 x93) (or (= x21 x75) (= x21 x63)))) (= x24 x21))) (or (= x17 x24) (or (= x17 x115) (or (or (= x17 x63) (= x75 x17)) (= x93 x17))))) (or (= x140 x24) (or (or (or (= x140 x63) (= x140 x75)) (= x93 x140)) (= x140 x115)))) (or (= x49 x24) (or (or (= x93 x49) (or (= x49 x75) (= x63 x49))) (= x115 x49))))) (and (and (and (or (or (or (= x93 x16) (or (= x63 x16) (= x75 x16))) (= x115 x16)) (= x24 x16)) (and (or (or (= x115 x96) (or (= x96 x93) (or (= x96 x75) (= x96 x63)))) (= x24 x96)) (or (or (= x115 x68) (or (or (= x68 x75) (= x63 x68)) (= x93 x68))) (= x24 x68)))) (or (= x89 x24) (or (= x115 x89) (or (= x89 x93) (or (= x63 x89) (= x75 x89)))))) (or (= x45 x24) (or (or (or (= x63 x45) (= x45 x75)) (= x45 x93)) (= x115 x45)))))))
(assert (let ((x83 (x85 x93 x93)) (x101 (x85 x75 x93)) (x72 (x85 x24 x93)) (x95 (x85 x75 x63)) (x21 (x85 x75 x115)) (x68 (x85 x63 x24)) (x139 (x85 x63 x93)) (x17 (x85 x93 x115)) (x140 (x85 x115 x115)) (x45 (x85 x24 x24)) (x103 (x85 x63 x115)) (x96 (x85 x75 x24)) (x61 (x85 x115 x75)) (x23 (x85 x93 x75)) (x89 (x85 x115 x24)) (x49 (x85 x24 x115)) (x106 (x85 x93 x63)) (x51 (x85 x115 x63)) (x15 (x85 x115 x93)) (x27 (x85 x24 x75)) (x88 (x85 x24 x63)) (x16 (x85 x93 x24)) (x98 (x85 x63 x63)) (x25 (x85 x63 x75)) (x20 (x85 x75 x75))) (or (or (and (and (not (= x115 (x85 x140 x140))) (and (and (not (= (x85 x21 x21) x75)) (not (= (x85 x103 x103) x63))) (not (= (x85 x17 x17) x93)))) (not (= (x85 x49 x49) x24))) (or (and (not (= x24 (x85 x72 x72))) (and (not (= (x85 x15 x15) x115)) (and (not (= (x85 x83 x83) x93)) (and (not (= (x85 x139 x139) x63)) (not (= (x85 x101 x101) x75)))))) (or (and (and (and (not (= (x85 x23 x23) x93)) (and (not (= x75 (x85 x20 x20))) (not (= x63 (x85 x25 x25))))) (not (= (x85 x61 x61) x115))) (not (= (x85 x27 x27) x24))) (and (not (= x24 (x85 x88 x88))) (and (not (= x115 (x85 x51 x51))) (and (and (not (= x75 (x85 x95 x95))) (not (= x63 (x85 x98 x98)))) (not (= x93 (x85 x106 x106))))))))) (and (and (and (not (= x93 (x85 x16 x16))) (and (not (= x63 (x85 x68 x68))) (not (= x75 (x85 x96 x96))))) (not (= (x85 x89 x89) x115))) (not (= (x85 x45 x45) x24))))))
(assert (let ((x61 (x85 x93 x93)) (x27 (x85 x115 x115)) (x23 (x85 x63 x63)) (x25 (x85 x75 x75)) (x95 (x85 x24 x24))) (let ((x83 (= x93 x61)) (x72 (= x24 x95)) (x15 (= x115 x27)) (x106 (= x63 x23)) (x20 (= x25 x75))) (let ((x98 (and (not (= x95 x75)) (and (not (= x27 x75)) (and (not (= x75 x61)) (and (not x20) (not (= x23 x75))))))) (x139 (and (and (and (and (not (= x24 x23)) (not (= x24 x25))) (not (= x24 x61))) (not (= x24 x27))) (not x72))) (x51 (and (not (= x95 x63)) (and (and (and (not x106) (not (= x63 x25))) (not (= x63 x61))) (not (= x63 x27))))) (x101 (and (and (and (not (= x115 x61)) (and (not (= x115 x23)) (not (= x115 x25)))) (not x15)) (not (= x95 x115)))) (x88 (and (and (not (= x27 x93)) (and (not x83) (and (not (= x23 x93)) (not (= x25 x93))))) (not (= x93 x95))))) (and (or (and (and (and (not (= (x85 x93 x95) x93)) (and (not (= x63 (x85 x63 x95))) (not (= x75 (x85 x75 x95))))) (not (= (x85 x115 x95) x115))) (not (= (x85 x24 x95) x24))) (or (and (not (= x24 (x85 x24 x27))) (and (not (= (x85 x115 x27) x115)) (and (and (not (= (x85 x63 x27) x63)) (not (= (x85 x75 x27) x75))) (not (= (x85 x93 x27) x93))))) (or (or (and (not (= x24 (x85 x24 x23))) (and (not (= (x85 x115 x23) x115)) (and (not (= x93 (x85 x93 x23))) (and (not (= (x85 x75 x23) x75)) (not (= (x85 x63 x23) x63)))))) (and (not (= (x85 x24 x25) x24)) (and (not (= (x85 x115 x25) x115)) (and (not (= x93 (x85 x93 x25))) (and (not (= x63 (x85 x63 x25))) (not (= (x85 x75 x25) x75))))))) (and (not (= x24 (x85 x24 x61))) (and (and (and (not (= (x85 x75 x61) x75)) (not (= x63 (x85 x63 x61)))) (not (= (x85 x93 x61) x93))) (not (= (x85 x115 x61) x115))))))) (or (or (or (or (or (and x139 (= x63 (x85 x63 x24))) (or (or (or (and x106 x51) (and (= x63 (x85 x63 x75)) x98)) (and (= (x85 x63 x93) x63) x88)) (and x101 (= (x85 x63 x115) x63)))) (or (or (and x101 (= (x85 x75 x115) x75)) (or (and (= (x85 x75 x93) x75) x88) (or (and x98 x20) (and x51 (= x75 (x85 x75 x63)))))) (and x139 (= x75 (x85 x75 x24))))) (or (or (or (and x88 x83) (or (and x51 (= (x85 x93 x63) x93)) (and (= (x85 x93 x75) x93) x98))) (and (= (x85 x93 x115) x93) x101)) (and x139 (= (x85 x93 x24) x93)))) (or (or (or (and (= x115 (x85 x115 x93)) x88) (or (and x51 (= (x85 x115 x63) x115)) (and x98 (= (x85 x115 x75) x115)))) (and x101 x15)) (and (= (x85 x115 x24) x115) x139))) (or (and x139 x72) (or (and (= (x85 x24 x115) x24) x101) (or (or (and (= x24 (x85 x24 x75)) x98) (and x51 (= x24 (x85 x24 x63)))) (and x88 (= (x85 x24 x93) x24)))))))))))
(assert (let ((x61 (x85 x115 x115)) (x27 (x85 x24 x24)) (x23 (x85 x93 x93)) (x25 (x85 x63 x63)) (x20 (x85 x75 x75))) (or (and (not (= x24 x27)) (and (not (= x61 x24)) (and (and (not (= x20 x24)) (not (= x24 x25))) (not (= x24 x23))))) (or (or (and (not (= x93 x27)) (and (and (and (not (= x93 x20)) (not (= x25 x93))) (not (= x93 x23))) (not (= x93 x61)))) (or (and (not (= x27 x63)) (and (and (not (= x23 x63)) (and (not (= x25 x63)) (not (= x63 x20)))) (not (= x61 x63)))) (and (and (and (not (= x75 x23)) (and (not (= x75 x20)) (not (= x25 x75)))) (not (= x61 x75))) (not (= x75 x27))))) (and (not (= x115 x27)) (and (not (= x61 x115)) (and (not (= x115 x23)) (and (not (= x20 x115)) (not (= x115 x25))))))))))
(assert (let ((x106 (x85 x63 x93)) (x98 (x85 x93 x63)) (x45 (= x24 (x85 x24 x24))) (x101 (x85 x75 x115)) (x140 (x85 x24 x63)) (x49 (x85 x63 x24)) (x61 (= x63 (x85 x63 x63))) (x95 (x85 x75 x93)) (x83 (x85 x63 x115)) (x20 (= x75 (x85 x75 x75))) (x72 (x85 x93 x115)) (x96 (x85 x24 x93)) (x139 (x85 x115 x63)) (x51 (= x93 (x85 x93 x93))) (x103 (x85 x24 x75)) (x23 (x85 x75 x63)) (x15 (x85 x115 x93)) (x68 (x85 x93 x24)) (x16 (x85 x24 x115)) (x17 (x85 x75 x24)) (x27 (x85 x93 x75)) (x89 (x85 x115 x24)) (x88 (x85 x115 x75)) (x25 (x85 x63 x75)) (x21 (= (x85 x115 x115) x115))) (or (or (or (or (and (= x96 x24) (= x68 x24)) (or (and (= x24 x103) (= x17 x24)) (and (= x140 x24) (= x24 x49)))) (and (= x89 x24) (= x24 x16))) (and x45 x45)) (or (or (and (= x115 x16) (= x89 x115)) (or (or (or (and (= x139 x115) (= x115 x83)) (and (= x115 x101) (= x115 x88))) (and (= x72 x115) (= x115 x15))) (and x21 x21))) (or (or (and (= x68 x93) (= x93 x96)) (or (or (or (and (= x93 x27) (= x93 x95)) (and (= x93 x98) (= x93 x106))) (and x51 x51)) (and (= x93 x72) (= x93 x15)))) (or (or (or (or (or (and (= x75 x23) (= x25 x75)) (and x20 x20)) (and (= x95 x75) (= x27 x75))) (and (= x88 x75) (= x101 x75))) (and (= x75 x17) (= x75 x103))) (or (and (= x140 x63) (= x63 x49)) (or (and (= x63 x139) (= x63 x83)) (or (or (and x61 x61) (and (= x63 x23) (= x63 x25))) (and (= x63 x98) (= x63 x106)))))))))))
(assert (not (and (and (and (and (and (= (x85 x24 x75) x93) (and (and (and (= (x85 x115 x93) x115) (and (and (= x24 (x85 x115 x75)) (and (= (x85 x93 x24) x93) (and (= (x85 x93 x115) x24) (and (= x75 (x85 x93 x93)) (and (= (x85 x93 x63) x63) (and (= x115 (x85 x93 x75)) (and (= (x85 x63 x24) x24) (and (and (and (and (= (x85 x63 x75) x75) (and (= x115 (x85 x75 x24)) (and (= x75 (x85 x75 x115)) (and (and (= x63 (x85 x75 x75)) (= (x85 x75 x63) x24)) (= (x85 x75 x93) x93))))) (= x93 (x85 x63 x63))) (= (x85 x63 x93) x63)) (= x115 (x85 x63 x115)))))))))) (= (x85 x115 x63) x75))) (= x93 (x85 x115 x115))) (= x63 (x85 x115 x24)))) (= x115 (x85 x24 x63))) (= x24 (x85 x24 x93))) (= x63 (x85 x24 x115))) (= (x85 x24 x24) x75))))
(assert (let ((x103 (x85 x115 x63)) (x89 (x85 x24 x115)) (x45 (x85 x24 x24)) (x25 (x85 x75 x63)) (x17 (x85 x115 x93)) (x20 (x85 x75 x75)) (x140 (x85 x115 x115)) (x88 (x85 x63 x24)) (x23 (x85 x75 x93)) (x16 (x85 x24 x93)) (x49 (x85 x115 x24)) (x83 (x85 x93 x93)) (x21 (x85 x115 x75)) (x68 (x85 x24 x63)) (x61 (x85 x75 x115)) (x27 (x85 x75 x24)) (x106 (x85 x63 x93)) (x72 (x85 x93 x24)) (x51 (x85 x63 x115)) (x101 (x85 x93 x75)) (x95 (x85 x63 x75)) (x96 (x85 x24 x75)) (x15 (x85 x93 x115)) (x98 (x85 x63 x63)) (x139 (x85 x93 x63))) (or (and (and (and (not (= x93 (x85 x16 x16))) (and (not (= (x85 x96 x96) x75)) (not (= x63 (x85 x68 x68))))) (not (= (x85 x89 x89) x115))) (not (= x24 (x85 x45 x45)))) (or (or (and (not (= x24 (x85 x72 x72))) (and (and (not (= (x85 x83 x83) x93)) (and (not (= x75 (x85 x101 x101))) (not (= (x85 x139 x139) x63)))) (not (= x115 (x85 x15 x15))))) (or (and (and (and (not (= (x85 x106 x106) x93)) (and (not (= (x85 x95 x95) x75)) (not (= x63 (x85 x98 x98))))) (not (= x115 (x85 x51 x51)))) (not (= x24 (x85 x88 x88)))) (and (not (= (x85 x27 x27) x24)) (and (not (= (x85 x61 x61) x115)) (and (and (not (= x63 (x85 x25 x25))) (not (= x75 (x85 x20 x20)))) (not (= x93 (x85 x23 x23)))))))) (and (not (= x24 (x85 x49 x49))) (and (not (= (x85 x140 x140) x115)) (and (and (not (= (x85 x103 x103) x63)) (not (= (x85 x21 x21) x75))) (not (= (x85 x17 x17) x93)))))))))
(assert (and (and (not (= x24 x93)) (and (not (= x93 x115)) (and (not (= x24 x63)) (and (not (= x63 x115)) (and (not (= x93 x63)) (and (not (= x24 x75)) (and (not (= x115 x75)) (and (not (= x75 x93)) (not (= x75 x63)))))))))) (not (= x24 x115))))
(check-sat)
(exit)
